c CNF file corresponding to a (partial) station packing problem.
p cnf 2777 229
1 2 3 4 5 6 7 8 9 10 11 12 13 14 0
-1 -2 0
-1 -3 0
-1 -4 0
-1 -5 0
-1 -6 0
-1 -7 0
-1 -8 0
-1 -9 0
-1 -10 0
-1 -11 0
-1 -12 0
-1 -13 0
-1 -14 0
-2 -3 0
-2 -4 0
-2 -5 0
-2 -6 0
-2 -7 0
-2 -8 0
-2 -9 0
-2 -10 0
-2 -11 0
-2 -12 0
-2 -13 0
-2 -14 0
-3 -4 0
-3 -5 0
-3 -6 0
-3 -7 0
-3 -8 0
-3 -9 0
-3 -10 0
-3 -11 0
-3 -12 0
-3 -13 0
-3 -14 0
-4 -5 0
-4 -6 0
-4 -7 0
-4 -8 0
-4 -9 0
-4 -10 0
-4 -11 0
-4 -12 0
-4 -13 0
-4 -14 0
-5 -6 0
-5 -7 0
-5 -8 0
-5 -9 0
-5 -10 0
-5 -11 0
-5 -12 0
-5 -13 0
-5 -14 0
-6 -7 0
-6 -8 0
-6 -9 0
-6 -10 0
-6 -11 0
-6 -12 0
-6 -13 0
-6 -14 0
-7 -8 0
-7 -9 0
-7 -10 0
-7 -11 0
-7 -12 0
-7 -13 0
-7 -14 0
-8 -9 0
-8 -10 0
-8 -11 0
-8 -12 0
-8 -13 0
-8 -14 0
-9 -10 0
-9 -11 0
-9 -12 0
-9 -13 0
-9 -14 0
-10 -11 0
-10 -12 0
-10 -13 0
-10 -14 0
-11 -12 0
-11 -13 0
-11 -14 0
-12 -13 0
-12 -14 0
-13 -14 0
2761 2762 2763 2764 2765 2766 2767 2768 2769 2770 2771 2772 2773 2774 2775 2776 2777 0
-2761 -2762 0
-2761 -2763 0
-2761 -2764 0
-2761 -2765 0
-2761 -2766 0
-2761 -2767 0
-2761 -2768 0
-2761 -2769 0
-2761 -2770 0
-2761 -2771 0
-2761 -2772 0
-2761 -2773 0
-2761 -2774 0
-2761 -2775 0
-2761 -2776 0
-2761 -2777 0
-2762 -2763 0
-2762 -2764 0
-2762 -2765 0
-2762 -2766 0
-2762 -2767 0
-2762 -2768 0
-2762 -2769 0
-2762 -2770 0
-2762 -2771 0
-2762 -2772 0
-2762 -2773 0
-2762 -2774 0
-2762 -2775 0
-2762 -2776 0
-2762 -2777 0
-2763 -2764 0
-2763 -2765 0
-2763 -2766 0
-2763 -2767 0
-2763 -2768 0
-2763 -2769 0
-2763 -2770 0
-2763 -2771 0
-2763 -2772 0
-2763 -2773 0
-2763 -2774 0
-2763 -2775 0
-2763 -2776 0
-2763 -2777 0
-2764 -2765 0
-2764 -2766 0
-2764 -2767 0
-2764 -2768 0
-2764 -2769 0
-2764 -2770 0
-2764 -2771 0
-2764 -2772 0
-2764 -2773 0
-2764 -2774 0
-2764 -2775 0
-2764 -2776 0
-2764 -2777 0
-2765 -2766 0
-2765 -2767 0
-2765 -2768 0
-2765 -2769 0
-2765 -2770 0
-2765 -2771 0
-2765 -2772 0
-2765 -2773 0
-2765 -2774 0
-2765 -2775 0
-2765 -2776 0
-2765 -2777 0
-2766 -2767 0
-2766 -2768 0
-2766 -2769 0
-2766 -2770 0
-2766 -2771 0
-2766 -2772 0
-2766 -2773 0
-2766 -2774 0
-2766 -2775 0
-2766 -2776 0
-2766 -2777 0
-2767 -2768 0
-2767 -2769 0
-2767 -2770 0
-2767 -2771 0
-2767 -2772 0
-2767 -2773 0
-2767 -2774 0
-2767 -2775 0
-2767 -2776 0
-2767 -2777 0
-2768 -2769 0
-2768 -2770 0
-2768 -2771 0
-2768 -2772 0
-2768 -2773 0
-2768 -2774 0
-2768 -2775 0
-2768 -2776 0
-2768 -2777 0
-2769 -2770 0
-2769 -2771 0
-2769 -2772 0
-2769 -2773 0
-2769 -2774 0
-2769 -2775 0
-2769 -2776 0
-2769 -2777 0
-2770 -2771 0
-2770 -2772 0
-2770 -2773 0
-2770 -2774 0
-2770 -2775 0
-2770 -2776 0
-2770 -2777 0
-2771 -2772 0
-2771 -2773 0
-2771 -2774 0
-2771 -2775 0
-2771 -2776 0
-2771 -2777 0
-2772 -2773 0
-2772 -2774 0
-2772 -2775 0
-2772 -2776 0
-2772 -2777 0
-2773 -2774 0
-2773 -2775 0
-2773 -2776 0
-2773 -2777 0
-2774 -2775 0
-2774 -2776 0
-2774 -2777 0
-2775 -2776 0
-2775 -2777 0
-2776 -2777 0
